bcc-Li
  3.4361
    1.0000  0.0000  0.0000
    0.0000  1.0000  0.0000
    0.0000  0.0000  1.0000
Li
  2
Direct
  0.0000  0.0000  0.0000
  0.5000  0.5000  0.5000
