Fe16 O4 F32
1.0
9.401191 0.000000 -0.084129
0.000000 5.359467 0.000000
0.000000 0.000000 14.955651
Fe O F
16 4 32
direct
0.164112 0.483976 0.179959 Fe
0.164112 0.516024 0.679959 Fe
0.664112 0.983976 0.179959 Fe
0.664112 0.016024 0.679959 Fe
0.175332 0.472852 0.973032 Fe
0.175332 0.527148 0.473032 Fe
0.675332 0.972852 0.973032 Fe
0.675332 0.027148 0.473032 Fe
0.331629 0.029414 0.822401 Fe
0.331629 0.970586 0.322401 Fe
0.831629 0.529414 0.822401 Fe
0.831629 0.470586 0.322401 Fe
0.333619 0.004320 0.517115 Fe
0.333619 0.995680 0.017115 Fe
0.833619 0.504320 0.517115 Fe
0.833619 0.495680 0.017115 Fe
0.309264 0.267408 0.925448 O
0.309264 0.732592 0.425448 O
0.809264 0.767408 0.925448 O
0.809264 0.232592 0.425448 O
0.003861 0.368842 0.243949 F
0.003861 0.631158 0.743949 F
0.503861 0.868842 0.243949 F
0.503861 0.131158 0.743949 F
0.025914 0.395377 0.579159 F
0.025914 0.604623 0.079159 F
0.525914 0.895377 0.579159 F
0.525914 0.104623 0.079159 F
0.176118 0.214170 0.083505 F
0.176118 0.785830 0.583505 F
0.676118 0.714170 0.083505 F
0.676118 0.285830 0.583505 F
0.181474 0.203445 0.739454 F
0.181474 0.796555 0.239454 F
0.681474 0.703445 0.739454 F
0.681474 0.296555 0.239454 F
0.189003 0.201860 0.423663 F
0.189003 0.798140 0.923663 F
0.689003 0.701860 0.423663 F
0.689003 0.298140 0.923663 F
0.293477 0.346868 0.578275 F
0.293477 0.653132 0.078275 F
0.793477 0.846868 0.578275 F
0.793477 0.153132 0.078275 F
0.303106 0.305611 0.248019 F
0.303106 0.694389 0.748019 F
0.803106 0.805611 0.248019 F
0.803106 0.194389 0.748019 F
0.490714 0.134648 0.422955 F
0.490714 0.865352 0.922955 F
0.990714 0.634648 0.422955 F
0.990714 0.365352 0.922955 F
