molecule-F2
  10.0000
    1.0000  0.0000  0.0000
    0.0000  1.0000  0.0000
    0.0000  0.0000  1.0000
F
  2
Direct
  0.0000  0.0000  0.0000
  0.0000  0.0000  0.1412
