P4
  10.000
    1.0000  0.0000  0.0000
    0.0000  1.0000  0.0000
    0.0000  0.0000  1.0000
P
  4
Direct
  0.0000  0.0000  0.0000
  0.0000  0.2197  0.0000
  0.1903  0.1099  0.0000
  0.0634  0.1099  0.1782
