Fe8 O2 F14
1.0
5.735919 0.000000 -0.790267
-0.009620 4.785442 0.000000
0.000000 0.000000 10.883966
Fe O F
8 2 14
direct
0.246994 0.248506 0.746233 Fe
0.246994 0.751494 0.253305 Fe
0.514857 0.244976 0.498792 Fe
0.514857 0.755024 0.998792 Fe
0.753739 0.231275 0.264862 Fe
0.755154 0.768725 0.764862 Fe
0.990459 0.241372 1.005529 Fe
0.990459 0.758628 0.496529 Fe
0.778572 0.058478 0.417252 O
0.778572 0.941522 0.917252 O
0.013700 0.057556 0.182786 F
0.015371 0.942444 0.682786 F
0.222249 0.449441 0.567338 F
0.222249 0.550559 0.077065 F
0.279233 0.051747 0.922037 F
0.279233 0.948253 0.422037 F
0.481875 0.453530 0.315840 F
0.481875 0.546470 0.815840 F
0.523003 0.035600 0.674166 F
0.522536 0.964400 0.174166 F
0.722353 0.443020 0.091094 F
0.714324 0.552921 0.591094 F
0.973433 0.456505 0.819604 F
0.973145 0.543495 0.319604 F
