Al12 O18
1.0
4.790376 -0.001581 0.000225
-2.364436 4.127732 0.008163
-0.004386 0.002356 13.125620
Al O
12 18
direct
0.000000 0.000000 0.147830 Al
0.000000 0.000000 0.352170 Al
0.000000 0.000000 0.852170 Al
0.000000 0.000000 0.647830 Al
0.666667 0.333333 0.481163 Al
0.666667 0.333333 0.685503 Al
0.666667 0.333333 0.185503 Al
0.666667 0.333333 0.981163 Al
0.333333 0.666667 0.814497 Al
0.333333 0.666667 0.018837 Al
0.333333 0.666667 0.518837 Al
0.333333 0.666667 0.314497 Al
0.306180 0.000000 0.250000 O
0.000000 0.306180 0.250000 O
0.693820 0.693820 0.250000 O
0.693820 0.000000 0.750000 O
0.000000 0.693820 0.750000 O
0.306180 0.306180 0.750000 O
0.972847 0.333333 0.583333 O
0.666667 0.639513 0.583333 O
0.360487 0.027153 0.583333 O
0.360487 0.333333 0.083333 O
0.666667 0.027153 0.083333 O
0.972847 0.639513 0.083333 O
0.639513 0.666667 0.916667 O
0.333333 0.972847 0.916667 O
0.027153 0.360487 0.916667 O
0.027153 0.666667 0.416667 O
0.333333 0.360487 0.416667 O
0.639513 0.972847 0.416667 O
