Fe12 O2 F22
1.0
3.252628 -0.027303 0.000000
0.000000 20.549384 0.000000
0.000000 0.000000 6.836046
Fe O F
12 2 22
direct
0.000000 0.166719 0.500944 Fe
0.000000 0.833281 0.501391 Fe
0.000000 0.660722 0.010091 Fe
0.000000 0.340616 0.001391 Fe
0.500000 0.166021 0.000004 Fe
0.500000 0.833979 0.000004 Fe
0.500000 0.666021 0.500004 Fe
0.500000 0.333979 0.500004 Fe
0.000000 0.000000 0.012162 Fe
0.006004 0.500000 0.502772 Fe
0.500000 0.000000 0.472400 Fe
0.500000 0.498740 0.972400 Fe
0.000000 0.000718 0.314362 O
0.005990 0.496688 0.814362 O
0.000000 0.168169 0.203299 F
0.000000 0.831831 0.194527 F
0.000000 0.672070 0.703299 F
0.000000 0.331831 0.703299 F
0.000000 0.168382 0.799346 F
0.000000 0.831618 0.799346 F
0.000000 0.668382 0.296186 F
0.000000 0.331618 0.299346 F
0.500000 0.068372 0.996337 F
0.500000 0.931628 0.996337 F
0.500000 0.568372 0.496337 F
0.500000 0.431628 0.496337 F
0.500000 0.098184 0.505679 F
0.500000 0.901816 0.505679 F
0.500000 0.598184 0.005679 F
0.500000 0.401816 -0.004234 F
0.500000 0.234060 0.501525 F
0.500000 0.765940 0.501525 F
0.500000 0.734060 0.001525 F
0.500000 0.265940 0.004465 F
0.000000 0.000000 0.694741 F
0.000000 0.500000 0.194741 F
