bcc-Fe
  2.866
    1.0000  0.0000  0.0000
    0.0000  1.0000  0.0000
    0.0000  0.0000  1.0000
Fe
  2
Direct
  0.0000  0.0000  0.0000
  0.5000  0.5000  0.5000
