fcc-Al
  4.0494
    1.0000  0.0000  0.0000
    0.0000  1.0000  0.0000
    0.0000  0.0000  1.0000
Al
  4
Direct
  0.0000  0.0000  0.0000
  0.0000  0.5000  0.5000
  0.5000  0.0000  0.5000
  0.5000  0.5000  0.0000
